NAME : amz0457.74835_74835.tour
COMMENT : Cost = 74835_74835
COMMENT : Found by LKH-AMZ [Keld Helsgaun] Sun May 11 14:32:22 2025
COMMENT : TW viol.: 0 #: 0
TYPE : TOUR
DIMENSION : 100
TOUR_SECTION
83
86
97
65
43
63
45
1
89
33
12
84
17
24
13
64
34
77
75
6
54
76
82
70
93
39
67
38
91
18
25
74
99
50
57
81
46
14
58
30
9
40
32
85
26
8
42
37
72
47
16
96
60
7
100
29
73
88
69
22
95
23
21
94
56
62
41
79
61
5
15
4
27
55
90
71
52
10
49
31
92
78
11
68
59
98
44
2
28
66
3
48
20
35
51
87
36
53
19
80
-1
EOF
